objective value:                    -1.04034986824273
h-1,14                                           0.05 	(obj:0)
h-1,42                                           0.05 	(obj:0)
h-1,44                                           0.05 	(obj:0)
h-1,45                                           0.05 	(obj:0)
h-1,80                                           0.05 	(obj:0)
h-1,81                                           0.05 	(obj:0)
h-1,109                                          0.05 	(obj:0)
h-1,116                                          0.05 	(obj:0)
h-1,121                                          0.05 	(obj:0)
h-1,128                            0.0990196138620377 	(obj:0)
h-1,129                             0.946078431606293 	(obj:0)
h-1,130                             0.377450984716415 	(obj:0)
h-1,136                                          0.05 	(obj:0)
h-1,137                                          0.05 	(obj:0)
h-1,138                                          0.05 	(obj:0)
h-1,139                                          0.05 	(obj:0)
h-1,143                                          0.05 	(obj:0)
h-1,144                                          0.05 	(obj:0)
h-1,145                                          0.05 	(obj:0)
h-1,146                                          0.05 	(obj:0)
h-1,148                                          0.05 	(obj:0)
h-1,149                                          0.05 	(obj:0)
h-1,150                                          0.05 	(obj:0)
h-1,151                                          0.05 	(obj:0)
h-1,152                                          0.05 	(obj:0)
h-1,153                                          0.05 	(obj:0)
h-1,156                             0.291176480054855 	(obj:0)
h-1,157                             0.938235294818878 	(obj:0)
h-1,158                             0.271568638086319 	(obj:0)
h-1,164                                          0.05 	(obj:0)
h-1,165                                          0.05 	(obj:0)
h-1,170                                          0.05 	(obj:0)
h-1,171                                          0.05 	(obj:0)
h-1,172                                          0.05 	(obj:0)
h-1,173                                          0.05 	(obj:0)
h-1,174                                          0.05 	(obj:0)
h-1,176                                          0.05 	(obj:0)
h-1,177                                          0.05 	(obj:0)
h-1,178                                          0.05 	(obj:0)
h-1,179                                          0.05 	(obj:0)
h-1,180                                          0.05 	(obj:0)
h-1,181                                          0.05 	(obj:0)
h-1,182                                          0.05 	(obj:0)
h-1,183                                          0.05 	(obj:0)
h-1,184                             0.579411792755127 	(obj:0)
h-1,185                             0.995098042488098 	(obj:0)
h-1,186                                          0.05 	(obj:0)
h-1,187                                          0.05 	(obj:0)
h-1,188                                          0.05 	(obj:0)
h-1,189                                          0.05 	(obj:0)
h-1,197                                          0.05 	(obj:0)
h-1,198                                          0.05 	(obj:0)
h-1,199                                          0.05 	(obj:0)
h-1,200                                          0.05 	(obj:0)
h-1,202                                          0.05 	(obj:0)
h-1,203                                          0.05 	(obj:0)
h-1,204                                          0.05 	(obj:0)
h-1,205                                          0.05 	(obj:0)
h-1,206                                          0.05 	(obj:0)
h-1,207                                          0.05 	(obj:0)
h-1,208                                          0.05 	(obj:0)
h-1,209                                          0.05 	(obj:0)
h-1,210                                          0.05 	(obj:0)
h-1,211                             0.226470592617989 	(obj:0)
h-1,212                                             1 	(obj:0)
h-1,213                             0.638235318660736 	(obj:0)
h-1,214                                          0.05 	(obj:0)
h-1,215                                          0.05 	(obj:0)
h-1,216                                          0.05 	(obj:0)
h-1,217                                          0.05 	(obj:0)
h-1,225                                          0.05 	(obj:0)
h-1,226                                          0.05 	(obj:0)
h-1,227                                          0.05 	(obj:0)
h-1,228                                          0.05 	(obj:0)
h-1,230                                          0.05 	(obj:0)
h-1,231                                          0.05 	(obj:0)
h-1,232                                          0.05 	(obj:0)
h-1,233                                          0.05 	(obj:0)
h-1,234                                          0.05 	(obj:0)
h-1,235                                          0.05 	(obj:0)
h-1,236                                          0.05 	(obj:0)
h-1,237                                          0.05 	(obj:0)
h-1,238                                          0.05 	(obj:0)
h-1,239                             0.379411774873734 	(obj:0)
h-1,240                                             1 	(obj:0)
h-1,241                              0.29705882370472 	(obj:0)
h-1,242                                          0.05 	(obj:0)
h-1,243                                          0.05 	(obj:0)
h-1,244                                          0.05 	(obj:0)
h-1,245                                          0.05 	(obj:0)
h-1,246                                          0.05 	(obj:0)
h-1,247                                          0.05 	(obj:0)
h-1,252                                          0.05 	(obj:0)
h-1,253                                          0.05 	(obj:0)
h-1,254                                          0.05 	(obj:0)
h-1,255                                          0.05 	(obj:0)
h-1,256                                          0.05 	(obj:0)
h-1,257                                          0.05 	(obj:0)
h-1,258                                          0.05 	(obj:0)
h-1,260                                          0.05 	(obj:0)
h-1,261                                          0.05 	(obj:0)
h-1,262                                          0.05 	(obj:0)
h-1,263                                          0.05 	(obj:0)
h-1,264                                          0.05 	(obj:0)
h-1,265                                          0.05 	(obj:0)
h-1,266                                          0.05 	(obj:0)
h-1,267                             0.842156875133514 	(obj:0)
h-1,268                             0.924509811401367 	(obj:0)
h-1,269                            0.0931372560560703 	(obj:0)
h-1,270                                          0.05 	(obj:0)
h-1,271                                          0.05 	(obj:0)
h-1,272                                          0.05 	(obj:0)
h-1,273                                          0.05 	(obj:0)
h-1,274                                          0.05 	(obj:0)
h-1,275                                          0.05 	(obj:0)
h-1,280                                          0.05 	(obj:0)
h-1,281                                          0.05 	(obj:0)
h-1,282                                          0.05 	(obj:0)
h-1,283                                          0.05 	(obj:0)
h-1,284                                          0.05 	(obj:0)
h-1,285                                          0.05 	(obj:0)
h-1,286                                          0.05 	(obj:0)
h-1,287                                          0.05 	(obj:0)
h-1,288                                          0.05 	(obj:0)
h-1,289                                          0.05 	(obj:0)
h-1,290                                          0.05 	(obj:0)
h-1,291                                          0.05 	(obj:0)
h-1,292                                          0.05 	(obj:0)
h-1,293                                          0.05 	(obj:0)
h-1,294                             0.175490203499794 	(obj:0)
h-1,295                                             1 	(obj:0)
h-1,296                             0.897058832645416 	(obj:0)
h-1,297                                          0.05 	(obj:0)
h-1,298                                          0.05 	(obj:0)
h-1,299                                          0.05 	(obj:0)
h-1,300                                          0.05 	(obj:0)
h-1,301                                          0.05 	(obj:0)
h-1,302                                          0.05 	(obj:0)
h-1,303                                          0.05 	(obj:0)
h-1,308                                          0.05 	(obj:0)
h-1,309                                          0.05 	(obj:0)
h-1,310                                          0.05 	(obj:0)
h-1,311                                          0.05 	(obj:0)
h-1,312                                          0.05 	(obj:0)
h-1,313                                          0.05 	(obj:0)
h-1,314                                          0.05 	(obj:0)
h-1,315                                          0.05 	(obj:0)
h-1,316                                          0.05 	(obj:0)
h-1,317                                          0.05 	(obj:0)
h-1,318                                          0.05 	(obj:0)
h-1,319                                          0.05 	(obj:0)
h-1,320                                          0.05 	(obj:0)
h-1,322                             0.322549027204514 	(obj:0)
h-1,323                                             1 	(obj:0)
h-1,324                             0.814705896377564 	(obj:0)
h-1,325                                          0.05 	(obj:0)
h-1,326                                          0.05 	(obj:0)
h-1,327                                          0.05 	(obj:0)
h-1,328                                          0.05 	(obj:0)
h-1,329                                          0.05 	(obj:0)
h-1,330                                          0.05 	(obj:0)
h-1,331                                          0.05 	(obj:0)
h-1,335                                          0.05 	(obj:0)
h-1,337                                          0.05 	(obj:0)
h-1,338                                          0.05 	(obj:0)
h-1,339                                          0.05 	(obj:0)
h-1,340                                          0.05 	(obj:0)
h-1,341                                          0.05 	(obj:0)
h-1,342                                          0.05 	(obj:0)
h-1,343                                          0.05 	(obj:0)
h-1,344                                          0.05 	(obj:0)
h-1,345                                          0.05 	(obj:0)
h-1,350                             0.499019634723663 	(obj:0)
h-1,351                                             1 	(obj:0)
h-1,352                             0.351960796117783 	(obj:0)
h-1,353                                          0.05 	(obj:0)
h-1,354                                          0.05 	(obj:0)
h-1,355                                          0.05 	(obj:0)
h-1,356                                          0.05 	(obj:0)
h-1,357                                          0.05 	(obj:0)
h-1,358                                          0.05 	(obj:0)
h-1,359                                          0.05 	(obj:0)
h-1,362                                          0.05 	(obj:0)
h-1,363                                          0.05 	(obj:0)
h-1,365                                          0.05 	(obj:0)
h-1,366                                          0.05 	(obj:0)
h-1,367                                          0.05 	(obj:0)
h-1,368                                          0.05 	(obj:0)
h-1,369                                          0.05 	(obj:0)
h-1,370                                          0.05 	(obj:0)
h-1,371                                          0.05 	(obj:0)
h-1,377                             0.173529413342476 	(obj:0)
h-1,378                             0.879411768913269 	(obj:0)
h-1,379                             0.753921580314636 	(obj:0)
h-1,380                            0.0813725508749485 	(obj:0)
h-1,382                                          0.05 	(obj:0)
h-1,384                                          0.05 	(obj:0)
h-1,385                                          0.05 	(obj:0)
h-1,386                                          0.05 	(obj:0)
h-1,389                                          0.05 	(obj:0)
h-1,390                                          0.05 	(obj:0)
h-1,391                                          0.05 	(obj:0)
h-1,393                                          0.05 	(obj:0)
h-1,394                                          0.05 	(obj:0)
h-1,395                                          0.05 	(obj:0)
h-1,396                                          0.05 	(obj:0)
h-1,405                             0.436274510622025 	(obj:0)
h-1,406                                          0.95 	(obj:0)
h-1,407                             0.597058844566345 	(obj:0)
h-1,408                                          0.05 	(obj:0)
h-1,409                                          0.05 	(obj:0)
h-1,410                                          0.05 	(obj:0)
h-1,411                                          0.05 	(obj:0)
h-1,412                                          0.05 	(obj:0)
h-1,413                                          0.05 	(obj:0)
h-1,417                                          0.05 	(obj:0)
h-1,418                                          0.05 	(obj:0)
h-1,419                                          0.05 	(obj:0)
h-1,424                                          0.05 	(obj:0)
h-1,425                                          0.05 	(obj:0)
h-1,426                                          0.05 	(obj:0)
h-1,433                             0.620588254928589 	(obj:0)
h-1,434                             0.946078431606293 	(obj:0)
h-1,435                             0.367647069692612 	(obj:0)
h-1,436                                          0.05 	(obj:0)
h-1,437                                          0.05 	(obj:0)
h-1,438                                          0.05 	(obj:0)
h-1,439                                          0.05 	(obj:0)
h-1,440                                          0.05 	(obj:0)
h-1,441                                          0.05 	(obj:0)
h-1,442                                          0.05 	(obj:0)
h-1,446                                          0.05 	(obj:0)
h-1,451                                          0.05 	(obj:0)
h-1,452                                          0.05 	(obj:0)
h-1,453                                          0.05 	(obj:0)
h-1,454                                          0.05 	(obj:0)
h-1,455                                          0.05 	(obj:0)
h-1,456                                          0.05 	(obj:0)
h-1,457                                          0.05 	(obj:0)
h-1,460                            0.0441176488995552 	(obj:0)
h-1,461                             0.859803926944733 	(obj:0)
h-1,462                             0.793137264251709 	(obj:0)
h-1,463                                          0.05 	(obj:0)
h-1,464                                          0.05 	(obj:0)
h-1,465                                          0.05 	(obj:0)
h-1,467                                          0.05 	(obj:0)
h-1,468                                          0.05 	(obj:0)
h-1,469                                          0.05 	(obj:0)
h-1,473                                          0.05 	(obj:0)
h-1,474                                          0.05 	(obj:0)
h-1,475                                          0.05 	(obj:0)
h-1,477                                          0.05 	(obj:0)
h-1,481                                          0.05 	(obj:0)
h-1,482                                          0.05 	(obj:0)
h-1,483                                          0.05 	(obj:0)
h-1,484                                          0.05 	(obj:0)
h-1,485                                          0.05 	(obj:0)
h-1,488                             0.520588237047195 	(obj:0)
h-1,489                             0.946078431606293 	(obj:0)
h-1,490                             0.573529434204102 	(obj:0)
h-1,491                                          0.05 	(obj:0)
h-1,493                                          0.05 	(obj:0)
h-1,494                                          0.05 	(obj:0)
h-1,500                                          0.05 	(obj:0)
h-1,501                                          0.05 	(obj:0)
h-1,502                                          0.05 	(obj:0)
h-1,504                                          0.05 	(obj:0)
h-1,512                                          0.05 	(obj:0)
h-1,513                                          0.05 	(obj:0)
h-1,514                                          0.05 	(obj:0)
h-1,515                                          0.05 	(obj:0)
h-1,516                             0.542156887054443 	(obj:0)
h-1,517                                             1 	(obj:0)
h-1,518                             0.506862771511078 	(obj:0)
h-1,529                                          0.05 	(obj:0)
h-1,533                                          0.05 	(obj:0)
h-1,534                                          0.05 	(obj:0)
h-1,535                                          0.05 	(obj:0)
h-1,537                                          0.05 	(obj:0)
h-1,544                             0.844117653369904 	(obj:0)
h-1,545                             0.946078431606293 	(obj:0)
h-1,546                             0.208823543787003 	(obj:0)
h-1,557                                          0.05 	(obj:0)
h-1,561                                          0.05 	(obj:0)
h-1,562                                          0.05 	(obj:0)
h-1,563                            0.0421600834856517 	(obj:0)
h-1,571                             0.189215686917305 	(obj:0)
h-1,572                             0.934313726425171 	(obj:0)
h-1,573                             0.946078431606293 	(obj:0)
h-1,574                             0.208823543787003 	(obj:0)
h-1,584                                          0.05 	(obj:0)
h-1,585                                          0.05 	(obj:0)
h-1,587                                          0.05 	(obj:0)
h-1,599                             0.502941203117371 	(obj:0)
h-1,600                             0.946078431606293 	(obj:0)
h-1,601                             0.753921580314636 	(obj:0)
h-1,608                                          0.05 	(obj:0)
h-1,612                                          0.05 	(obj:0)
h-1,613                                          0.05 	(obj:0)
h-1,623                                          0.05 	(obj:0)
h-1,624                                          0.05 	(obj:0)
h-1,625                           0.00140414369238682 	(obj:0)
h-1,627                             0.793137264251709 	(obj:0)
h-1,628                                             1 	(obj:0)
h-1,629                             0.424509805440903 	(obj:0)
h-1,630                                          0.05 	(obj:0)
h-1,638                                          0.05 	(obj:0)
h-1,639                                          0.05 	(obj:0)
h-1,640                                          0.05 	(obj:0)
h-1,641                                          0.05 	(obj:0)
h-1,651                                          0.05 	(obj:0)
h-1,654                            0.0696078438311815 	(obj:0)
h-1,655                             0.826470601558685 	(obj:0)
h-1,656                             0.640196096897125 	(obj:0)
h-1,658                                          0.05 	(obj:0)
h-1,666                                          0.05 	(obj:0)
h-1,667                                          0.05 	(obj:0)
h-1,668                                          0.05 	(obj:0)
h-1,676                                          0.05 	(obj:0)
h-1,677                                          0.05 	(obj:0)
h-1,678                                          0.05 	(obj:0)
h-1,679                                          0.05 	(obj:0)
h-1,680                                          0.05 	(obj:0)
h-1,692                                          0.05 	(obj:0)
h-1,693                                          0.05 	(obj:0)
h-1,694                                          0.05 	(obj:0)
h-1,698                                          0.05 	(obj:0)
h-1,704                                          0.05 	(obj:0)
h-1,705                                          0.05 	(obj:0)
h-1,706                                          0.05 	(obj:0)
h-1,707                                          0.05 	(obj:0)
h-1,708                                          0.05 	(obj:0)
h-1,709                                          0.05 	(obj:0)
h-1,710                                          0.05 	(obj:0)
h-1,711                                          0.05 	(obj:0)
h-1,712                                          0.05 	(obj:0)
h-1,713                                          0.05 	(obj:0)
h-1,714                                          0.05 	(obj:0)
h-1,715                                          0.05 	(obj:0)
h-1,716                                          0.05 	(obj:0)
h-1,717                                          0.05 	(obj:0)
h-1,718                                          0.05 	(obj:0)
h-1,719                                          0.05 	(obj:0)
h-1,720                                          0.05 	(obj:0)
h-1,721                                          0.05 	(obj:0)
h-1,724                                          0.05 	(obj:0)
h-1,725                                          0.05 	(obj:0)
h-1,726                                          0.05 	(obj:0)
h-1,731                                          0.05 	(obj:0)
h-1,733                                          0.05 	(obj:0)
h-1,734                                          0.05 	(obj:0)
h-1,735                                          0.05 	(obj:0)
h-1,736                                          0.05 	(obj:0)
h-1,737                                          0.05 	(obj:0)
h-1,738                                          0.05 	(obj:0)
h-1,739                                          0.05 	(obj:0)
h-1,740                                          0.05 	(obj:0)
h-1,741                                          0.05 	(obj:0)
h-1,742                                          0.05 	(obj:0)
h-1,743                                          0.05 	(obj:0)
h-1,744                                          0.05 	(obj:0)
h-1,745                                          0.05 	(obj:0)
h-1,746                                          0.05 	(obj:0)
h-1,747                                          0.05 	(obj:0)
h-1,748                                          0.05 	(obj:0)
h-1,749                                          0.05 	(obj:0)
h-1,750                                          0.05 	(obj:0)
h-1,751                                          0.05 	(obj:0)
h-1,752                                          0.05 	(obj:0)
h-1,765                                          0.05 	(obj:0)
h-1,766                                          0.05 	(obj:0)
h-1,767                                          0.05 	(obj:0)
h-1,768                                          0.05 	(obj:0)
h-1,769                                          0.05 	(obj:0)
h-1,770                                          0.05 	(obj:0)
h-1,771                                          0.05 	(obj:0)
h-1,772                                          0.05 	(obj:0)
h-1,773                                          0.05 	(obj:0)
h-1,774                                          0.05 	(obj:0)
h-1,775                                          0.05 	(obj:0)
h-1,777                                          0.05 	(obj:0)
h-1,778                                          0.05 	(obj:0)
h-1,779                                          0.05 	(obj:0)
z0,0                                 6.93167320456898 	(obj:0)
a0,0                                 6.93264142584458 	(obj:0)
z0,1                                 1.11106341545513 	(obj:0)
a0,1                                 1.39565368486833 	(obj:0)
z0,2                                 3.85032430854886 	(obj:0)
a0,2                                 3.87138134109889 	(obj:0)
z0,3                                 2.15712332469873 	(obj:0)
a0,3                                 2.26655928456778 	(obj:0)
z0,4                                 3.11365710556335 	(obj:0)
a0,4                                 3.15713056799868 	(obj:0)
z1,0                                -7.87862643799933 	(obj:0)
a1,0                             0.000383222562243544 	(obj:0)
z1,1                                 4.88373439641495 	(obj:0)
a1,1                                 4.89126773777774 	(obj:-1)
z1,2                                 3.29215594145056 	(obj:0)
a1,2                                 3.32865714207761 	(obj:0)
z1,3                                 2.55625834813889 	(obj:0)
a1,3                                 2.63099035658726 	(obj:0)
z1,4                                -3.85881068779717 	(obj:0)
a1,4                               0.0208794056433598 	(obj:0)
z1,5                                -3.71898277714323 	(obj:0)
a1,5                               0.0239772494445583 	(obj:0)
z1,6                                -4.65937543021924 	(obj:0)
a1,6                              0.00942707033557964 	(obj:0)
z1,7                                 3.82942155214921 	(obj:0)
a1,7                                   3.850917869535 	(obj:1)
z1,8                                 1.41132354936242 	(obj:0)
a1,8                                 1.62951918655571 	(obj:0)
z1,9                               0.0936988191972512 	(obj:0)
a1,9                                 0.74109577585085 	(obj:0)
